NAME : morphed20-2-26
COMMENT : Generated using the function morphInstances from the R-package netgen (Bossek,2015) - Number of clusters: 2 Alpha: 0.5
TYPE : TSP
DIMENSION : 20
EDGE_WEIGHT_TYPE : EUC_2D
NODE_COORD_SECTION
1 14.3715546433 96.4693803713
2 29.5308258697 79.5160393289
3 78.946729448 31.463381653
4 69.3942702788 23.7106788939
5 41.1343915549 17.0470753663
6 47.0364400079 84.5089236383
7 64.8204154238 98.3853180345
8 62.5188628191 84.6849239142
9 36.3703585453 71.0748947545
10 63.7528778633 28.2068630362
11 53.4619438737 86.3304597091
12 39.5104559512 29.689754736
13 56.2570942789 36.0837656594
14 20.1002115884 10.321538562
15 70.6649291533 8.4032143502
16 33.8901811555 98.7669045392
17 51.0155802933 3.4761234927
18 45.0893166056 18.4150876722
19 61.3708642697 82.4144556435
20 57.3785069774 94.9067086152
EOF
